(declare-fun temp166_2 () (_ BitVec 64))
(declare-fun temp166_1 () (_ BitVec 64))
(declare-fun temp166_3 () (_ BitVec 64))
(declare-fun var656574 () (_ BitVec 64))
(declare-fun temp166_4 () (_ BitVec 64))
(declare-fun temp166_5 () (_ BitVec 64))
(declare-fun var656674 () (_ BitVec 64))
(declare-fun k!0 () Bool)
(declare-fun ARGNAME_n_NAMEEND () (_ BitVec 64))
(declare-fun temp166_6 () (_ BitVec 64))
(declare-fun ARGNAME_input_NAMEEND_DIM () (_ BitVec 64))
(declare-fun var1116139 () (_ BitVec 64))
(declare-fun temp166_8 () (_ BitVec 64))
(declare-fun temp166_7 () (_ BitVec 64))
(declare-fun var1182583 () (_ BitVec 64))
(declare-fun temp166_9 () (_ BitVec 64))
(declare-fun var1249032 () (_ BitVec 64))
(declare-fun var1314577 () (_ BitVec 64))
(declare-fun temp166_11 () (_ BitVec 64))
(declare-fun temp166_10 () (_ BitVec 64))
(declare-fun temp166_12 () (_ BitVec 64))
(declare-fun var1511159 () (_ BitVec 64))
(declare-fun temp166_13 () (_ BitVec 64))
(declare-fun var1116200 () (_ BitVec 64))
(declare-fun temp166_14 () (_ BitVec 64))
(declare-fun var1116242 () (_ BitVec 64))
(declare-fun temp166_16 () (_ BitVec 64))
(declare-fun temp166_15 () (_ BitVec 64))
(declare-fun temp166_17 () (_ BitVec 64))
(declare-fun var2100216 () (_ BitVec 64))
(declare-fun var1116187 () (_ BitVec 64))
(declare-fun var1116186 () (_ BitVec 64))
(declare-fun temp166_18 () (_ BitVec 64))
(declare-fun var1116191 () (_ BitVec 64))
(declare-fun temp166_19 () (_ BitVec 64))
(declare-fun var1116193 () (_ BitVec 64))
(declare-fun temp166_20 () (_ BitVec 64))
(declare-fun temp166_21 () (_ BitVec 64))
(declare-fun var3411098 () (_ BitVec 64))
(declare-fun var3934414 () (_ BitVec 64))
(declare-fun temp166_22 () (_ BitVec 64))
(declare-fun temp166_23 () (_ BitVec 64))
(declare-fun var3934444 () (_ BitVec 64))
(declare-fun var3934491 () (_ BitVec 64))
(declare-fun var3934412 () (_ BitVec 64))
(declare-fun var656744 () (_ BitVec 64))
(declare-fun var656747 () (_ BitVec 64))
(declare-fun var4526729 () (_ BitVec 64))
(declare-fun var4526730 () (_ BitVec 64))
(declare-fun var4657880 () (_ BitVec 64))
(declare-fun var4657881 () (_ BitVec 64))
(assert (= temp166_2 #x0000000000000000))
(assert (= temp166_1 temp166_2))
(assert (= temp166_3 #x0000000000000000))
(assert (= var656574 temp166_3))
(assert (= temp166_4 #x0000000000000001))
(assert (= var656674
   (ite (bvslt ARGNAME_n_NAMEEND temp166_4)
        #x0000000000000001
        #x0000000000000000)))
(assert (= temp166_5 #x0000000000000000))
(assert (= var656674 temp166_5))
(assert (= temp166_6 #x0000000000000001))
(assert (= var1116139 (bvshl ARGNAME_input_NAMEEND_DIM temp166_6)))
(assert (= temp166_8 #x0000000000000000))
(assert (= temp166_7 temp166_8))
(assert (= var1182583 var1116139))
(assert (= temp166_9 #x0000000000000005))
(assert (= var1249032 temp166_9))
(assert (= var1314577 var1182583))
(assert (= temp166_11 #x0000000000000000))
(assert (= temp166_10 temp166_11))
(assert (= temp166_12 #x0000000000000000))
(assert (= var1511159 temp166_12))
(assert (= temp166_13 #x0000000000000000))
(assert (= var1116200 temp166_13))
(assert (= temp166_14 #x0000000000000001))
(assert (= var1116242 temp166_14))
(assert (= temp166_16 #x0000000000000000))
(assert (= temp166_15 temp166_16))
(assert (= temp166_17 #x0000000000000001))
(assert (= var2100216 temp166_17))
(assert (= var1116187 var1116242))
(assert (= var1116186 var1116187))
(assert (= temp166_18 #x0000000000000001))
(assert (= var1116191 (bvand var1116186 temp166_18)))
(assert (= temp166_19 #x0000000000000000))
(assert (= var1116193
   (ite (= var1116191 temp166_19) #x0000000000000001 #x0000000000000000)))
(assert (= temp166_20 #x0000000000000000))
(assert (= var1116193 temp166_20))
(assert (= temp166_21 #x0000000000000000))
(assert (= var3411098 temp166_21))
(assert (= var3934414 var656574))
(assert (= temp166_22 #x0000000000000000))
(assert (= temp166_23 #x0000000000000002))
(assert (= var3934444 (ite (= var3934414 #x0000000000000001) temp166_22 temp166_23)))
(assert (= var3934491 var3934444))
(assert (= var3934412 var3934491))
(assert (= var656744 var3934412))
(assert (= var656747 var656744))
(assert (= var4526729 var656747))
(assert (= var4526730 var656574))
(assert (= var4657880 var4526729))
(assert (= var4657881 var4526730))
(model-add temp166_2 () (_ BitVec 64) #x0000000000000000)
(model-add temp166_1 () (_ BitVec 64) #x0000000000000000)
(model-add temp166_3 () (_ BitVec 64) #x0000000000000000)
(model-add var656574 () (_ BitVec 64) #x0000000000000000)
(model-add temp166_4 () (_ BitVec 64) #x0000000000000001)
(model-add temp166_5 () (_ BitVec 64) #x0000000000000000)
(model-add var656674 () (_ BitVec 64) #x0000000000000000)
(model-del k!0)
(model-add ARGNAME_n_NAMEEND
           ()
           (_ BitVec 64)
           (ite (or k!0 (= #x0000000000000001 #x8000000000000000))
                #x0000000000000001
                (bvsub #x0000000000000001 #x0000000000000001)))




